pair_coeff 1 1 0.512423 6.18 1.0 18.54 0.0
pair_coeff 1 2 0.232551 5.34 1.0 16.02 0.0
pair_coeff 1 3 0.109515 6.27 1.0 18.81 0.0
pair_coeff 1 4 0.248775 5.9 1.0 17.700000000000003 0.0
pair_coeff 1 5 0.196046 6.369999999999999 1.0 19.11 0.0
pair_coeff 1 6 0.306913 5.609999999999999 1.0 16.83 0.0
pair_coeff 1 7 0.121684 5.88 1.0 17.64 0.0
pair_coeff 1 8 0.164949 6.05 1.0 18.15 0.0
pair_coeff 1 9 0.438061 6.32 1.0 18.96 0.0
pair_coeff 1 10 0.493495 6.02 1.0 18.06 0.0
pair_coeff 1 11 0.640867 6.18 1.0 18.54 0.0
pair_coeff 1 12 0.220383 6.1 1.0 18.299999999999997 0.0
pair_coeff 1 13 0.524592 6.48 1.0 19.44 0.0
pair_coeff 1 14 0.661148 6.27 1.0 18.81 0.0
pair_coeff 1 15 0.183877 5.68 1.0 17.04 0.0
pair_coeff 1 16 0.312321 6.13 1.0 18.39 0.0
pair_coeff 1 17 0.173061 5.93 1.0 17.79 0.0
pair_coeff 1 18 0.240663 5.869999999999999 1.0 17.61 0.0
pair_coeff 1 19 0.448877 5.83 1.0 17.490000000000002 0.0
pair_coeff 1 20 0.588137 6.18 1.0 18.54 0.0
pair_coeff 1 21 0.300776 6.18 1.0 18.54 0.0
pair_coeff 1 22 0.105601 5.34 1.0 16.02 0.0
pair_coeff 1 23 0.0198 6.27 1.0 18.81 0.0
pair_coeff 1 24 0.116916 5.9 1.0 17.700000000000003 0.0
pair_coeff 1 25 0.080144 6.369999999999999 1.0 19.11 0.0
pair_coeff 1 26 0.157459 5.609999999999999 1.0 16.83 0.0
pair_coeff 1 27 0.028286 5.88 1.0 17.64 0.0
pair_coeff 1 28 0.058458 6.05 1.0 18.15 0.0
pair_coeff 1 29 0.248918 6.32 1.0 18.96 0.0
pair_coeff 1 30 0.287575 6.02 1.0 18.06 0.0
pair_coeff 1 31 0.390348 6.18 1.0 18.54 0.0
pair_coeff 1 32 0.097116 6.1 1.0 18.299999999999997 0.0
pair_coeff 1 33 0.309261 6.48 1.0 19.44 0.0
pair_coeff 1 34 0.404491 6.27 1.0 18.81 0.0
pair_coeff 1 35 0.071658 5.68 1.0 17.04 0.0
pair_coeff 1 36 0.161231 6.13 1.0 18.39 0.0
pair_coeff 1 37 0.064115 5.93 1.0 17.79 0.0
pair_coeff 1 38 0.111259 5.869999999999999 1.0 17.61 0.0
pair_coeff 1 39 0.256461 5.83 1.0 17.490000000000002 0.0
pair_coeff 1 40 0.353576 6.18 1.0 18.54 0.0
pair_coeff 1 41 0.512423 6.18 1.0 18.54 0.0
pair_coeff 1 42 0.232551 5.34 1.0 16.02 0.0
pair_coeff 1 43 0.109515 6.27 1.0 18.81 0.0
pair_coeff 1 44 0.248775 5.9 1.0 17.700000000000003 0.0
pair_coeff 1 45 0.196046 6.369999999999999 1.0 19.11 0.0
pair_coeff 1 46 0.306913 5.609999999999999 1.0 16.83 0.0
pair_coeff 1 47 0.121684 5.88 1.0 17.64 0.0
pair_coeff 1 48 0.164949 6.05 1.0 18.15 0.0
pair_coeff 1 49 0.438061 6.32 1.0 18.96 0.0
pair_coeff 1 50 0.493495 6.02 1.0 18.06 0.0
pair_coeff 1 51 0.640867 6.18 1.0 18.54 0.0
pair_coeff 1 52 0.220383 6.1 1.0 18.299999999999997 0.0
pair_coeff 1 53 0.524592 6.48 1.0 19.44 0.0
pair_coeff 1 54 0.661148 6.27 1.0 18.81 0.0
pair_coeff 1 55 0.183877 5.68 1.0 17.04 0.0
pair_coeff 1 56 0.312321 6.13 1.0 18.39 0.0
pair_coeff 1 57 0.173061 5.93 1.0 17.79 0.0
pair_coeff 1 58 0.240663 5.869999999999999 1.0 17.61 0.0
pair_coeff 1 59 0.448877 5.83 1.0 17.490000000000002 0.0
pair_coeff 1 60 0.588137 6.18 1.0 18.54 0.0
pair_coeff 1 61 0.300776 6.18 1.0 18.54 0.0
pair_coeff 1 62 0.105601 5.34 1.0 16.02 0.0
pair_coeff 1 63 0.0198 6.27 1.0 18.81 0.0
pair_coeff 1 64 0.116916 5.9 1.0 17.700000000000003 0.0
pair_coeff 1 65 0.080144 6.369999999999999 1.0 19.11 0.0
pair_coeff 1 66 0.157459 5.609999999999999 1.0 16.83 0.0
pair_coeff 1 67 0.028286 5.88 1.0 17.64 0.0
pair_coeff 1 68 0.058458 6.05 1.0 18.15 0.0
pair_coeff 1 69 0.248918 6.32 1.0 18.96 0.0
pair_coeff 1 70 0.287575 6.02 1.0 18.06 0.0
pair_coeff 1 71 0.390348 6.18 1.0 18.54 0.0
pair_coeff 1 72 0.097116 6.1 1.0 18.299999999999997 0.0
pair_coeff 1 73 0.309261 6.48 1.0 19.44 0.0
pair_coeff 1 74 0.404491 6.27 1.0 18.81 0.0
pair_coeff 1 75 0.071658 5.68 1.0 17.04 0.0
pair_coeff 1 76 0.161231 6.13 1.0 18.39 0.0
pair_coeff 1 77 0.064115 5.93 1.0 17.79 0.0
pair_coeff 1 78 0.111259 5.869999999999999 1.0 17.61 0.0
pair_coeff 1 79 0.256461 5.83 1.0 17.490000000000002 0.0
pair_coeff 1 80 0.353576 6.18 1.0 18.54 0.0
pair_coeff 2 2 0.077066 4.5 1.0 13.5 0.0
pair_coeff 2 3 0.070306 5.43 -1.0 16.29 0.0
pair_coeff 2 4 0.055434 5.0600000000000005 1.0 15.180000000000001 0.0
pair_coeff 2 5 0.00676 5.529999999999999 1.0 16.589999999999996 0.0
pair_coeff 2 6 0.086531 4.77 1.0 14.309999999999999 0.0
pair_coeff 2 7 0.010816 5.04 -1.0 15.120000000000001 0.0
pair_coeff 2 8 0.060842 5.21 -1.0 15.629999999999999 0.0
pair_coeff 2 9 0.181173 5.48 1.0 16.44 0.0
pair_coeff 2 10 0.231199 5.18 1.0 15.54 0.0
pair_coeff 2 11 0.336658 5.34 1.0 16.02 0.0
pair_coeff 2 12 0.001352 5.26 -1.0 15.78 0.0
pair_coeff 2 13 0.236607 5.640000000000001 1.0 16.92 0.0
pair_coeff 2 14 0.332602 5.43 1.0 16.29 0.0
pair_coeff 2 15 0.020281 4.84 1.0 14.52 0.0
pair_coeff 2 16 0.064898 5.29 1.0 15.870000000000001 0.0
pair_coeff 2 17 0.009464 5.09 1.0 15.27 0.0
pair_coeff 2 18 0.027041 5.029999999999999 1.0 15.089999999999998 0.0
pair_coeff 2 19 0.201454 4.99 1.0 14.97 0.0
pair_coeff 2 20 0.28528 5.34 1.0 16.02 0.0
pair_coeff 2 21 0.105601 5.34 1.0 16.02 0.0
pair_coeff 2 22 0.002829 4.5 -1.0 13.5 0.0
pair_coeff 2 23 0.105601 5.43 -1.0 16.29 0.0
pair_coeff 2 24 0.017915 5.0600000000000005 -1.0 15.180000000000001 0.0
pair_coeff 2 25 0.051858 5.529999999999999 -1.0 16.589999999999996 0.0
pair_coeff 2 26 0.003771 4.77 1.0 14.309999999999999 0.0
pair_coeff 2 27 0.064115 5.04 -1.0 15.120000000000001 0.0
pair_coeff 2 28 0.099001 5.21 -1.0 15.629999999999999 0.0
pair_coeff 2 29 0.069772 5.48 1.0 16.44 0.0
pair_coeff 2 30 0.104659 5.18 1.0 15.54 0.0
pair_coeff 2 31 0.178202 5.34 1.0 16.02 0.0
pair_coeff 2 32 0.057515 5.26 -1.0 15.78 0.0
pair_coeff 2 33 0.10843 5.640000000000001 1.0 16.92 0.0
pair_coeff 2 34 0.175374 5.43 1.0 16.29 0.0
pair_coeff 2 35 0.042429 4.84 -1.0 14.52 0.0
pair_coeff 2 36 0.011314 5.29 -1.0 15.870000000000001 0.0
pair_coeff 2 37 0.049972 5.09 -1.0 15.27 0.0
pair_coeff 2 38 0.037715 5.029999999999999 -1.0 15.089999999999998 0.0
pair_coeff 2 39 0.083915 4.99 1.0 14.97 0.0
pair_coeff 2 40 0.142373 5.34 1.0 16.02 0.0
pair_coeff 2 41 0.232551 5.34 1.0 16.02 0.0
pair_coeff 2 42 0.077066 4.5 1.0 13.5 0.0
pair_coeff 2 43 0.070306 5.43 -1.0 16.29 0.0
pair_coeff 2 44 0.055434 5.0600000000000005 1.0 15.180000000000001 0.0
pair_coeff 2 45 0.00676 5.529999999999999 1.0 16.589999999999996 0.0
pair_coeff 2 46 0.086531 4.77 1.0 14.309999999999999 0.0
pair_coeff 2 47 0.010816 5.04 -1.0 15.120000000000001 0.0
pair_coeff 2 48 0.060842 5.21 -1.0 15.629999999999999 0.0
pair_coeff 2 49 0.181173 5.48 1.0 16.44 0.0
pair_coeff 2 50 0.231199 5.18 1.0 15.54 0.0
pair_coeff 2 51 0.336658 5.34 1.0 16.02 0.0
pair_coeff 2 52 0.001352 5.26 -1.0 15.78 0.0
pair_coeff 2 53 0.236607 5.640000000000001 1.0 16.92 0.0
pair_coeff 2 54 0.332602 5.43 1.0 16.29 0.0
pair_coeff 2 55 0.020281 4.84 1.0 14.52 0.0
pair_coeff 2 56 0.064898 5.29 1.0 15.870000000000001 0.0
pair_coeff 2 57 0.009464 5.09 1.0 15.27 0.0
pair_coeff 2 58 0.027041 5.029999999999999 1.0 15.089999999999998 0.0
pair_coeff 2 59 0.201454 4.99 1.0 14.97 0.0
pair_coeff 2 60 0.28528 5.34 1.0 16.02 0.0
pair_coeff 2 61 0.105601 5.34 1.0 16.02 0.0
pair_coeff 2 62 0.002829 4.5 -1.0 13.5 0.0
pair_coeff 2 63 0.105601 5.43 -1.0 16.29 0.0
pair_coeff 2 64 0.017915 5.0600000000000005 -1.0 15.180000000000001 0.0
pair_coeff 2 65 0.051858 5.529999999999999 -1.0 16.589999999999996 0.0
pair_coeff 2 66 0.003771 4.77 1.0 14.309999999999999 0.0
pair_coeff 2 67 0.064115 5.04 -1.0 15.120000000000001 0.0
pair_coeff 2 68 0.099001 5.21 -1.0 15.629999999999999 0.0
pair_coeff 2 69 0.069772 5.48 1.0 16.44 0.0
pair_coeff 2 70 0.104659 5.18 1.0 15.54 0.0
pair_coeff 2 71 0.178202 5.34 1.0 16.02 0.0
pair_coeff 2 72 0.057515 5.26 -1.0 15.78 0.0
pair_coeff 2 73 0.10843 5.640000000000001 1.0 16.92 0.0
pair_coeff 2 74 0.175374 5.43 1.0 16.29 0.0
pair_coeff 2 75 0.042429 4.84 -1.0 14.52 0.0
pair_coeff 2 76 0.011314 5.29 -1.0 15.870000000000001 0.0
pair_coeff 2 77 0.049972 5.09 -1.0 15.27 0.0
pair_coeff 2 78 0.037715 5.029999999999999 -1.0 15.089999999999998 0.0
pair_coeff 2 79 0.083915 4.99 1.0 14.97 0.0
pair_coeff 2 80 0.142373 5.34 1.0 16.02 0.0
pair_coeff 3 3 0.209566 6.36 -1.0 19.080000000000002 35.0
pair_coeff 3 4 0.048673 5.99 -1.0 17.97 0.0
pair_coeff 3 5 0.14602 6.46 -1.0 19.38 35.0
pair_coeff 3 6 0.048673 5.7 -1.0 17.1 0.0
pair_coeff 3 7 0.001352 5.970000000000001 1.0 17.910000000000004 35.0
pair_coeff 3 8 0.017577 6.140000000000001 1.0 18.42 35.0
pair_coeff 3 9 0.12574 6.41 1.0 19.23 0.0
pair_coeff 3 10 0.110867 6.11 1.0 18.330000000000002 0.0
pair_coeff 3 11 0.229847 6.27 1.0 18.81 0.0
pair_coeff 3 12 0.051378 6.1899999999999995 -1.0 18.57 0.0
pair_coeff 3 13 0.137908 6.57 1.0 19.71 0.0
pair_coeff 3 14 0.228495 6.36 1.0 19.080000000000002 0.0
pair_coeff 3 15 0.083826 5.77 -1.0 17.31 0.0
pair_coeff 3 16 0.043265 6.220000000000001 -1.0 18.660000000000004 35.0
pair_coeff 3 17 0.062194 6.02 -1.0 18.06 0.0
pair_coeff 3 18 0.094643 5.96 -1.0 17.88 0.0
pair_coeff 3 19 0.037857 5.92 1.0 17.759999999999998 0.0
pair_coeff 3 20 0.181173 6.27 1.0 18.81 0.0
pair_coeff 3 21 0.0198 6.27 1.0 18.81 0.0
pair_coeff 3 22 0.105601 5.43 -1.0 16.29 0.0
pair_coeff 3 23 0.202717 6.36 -1.0 19.080000000000002 35.0
pair_coeff 3 24 0.090516 5.99 -1.0 17.97 0.0
pair_coeff 3 25 0.158402 6.46 -1.0 19.38 35.0
pair_coeff 3 26 0.090516 5.7 -1.0 17.1 0.0
pair_coeff 3 27 0.055629 5.970000000000001 -1.0 17.910000000000004 35.0
pair_coeff 3 28 0.044315 6.140000000000001 -1.0 18.42 35.0
pair_coeff 3 29 0.031115 6.41 1.0 19.23 0.0
pair_coeff 3 30 0.020743 6.11 1.0 18.330000000000002 0.0
pair_coeff 3 31 0.103716 6.27 1.0 18.81 0.0
pair_coeff 3 32 0.092401 6.1899999999999995 -1.0 18.57 0.0
pair_coeff 3 33 0.039601 6.57 1.0 19.71 0.0
pair_coeff 3 34 0.102773 6.36 1.0 19.080000000000002 0.0
pair_coeff 3 35 0.11503 5.77 -1.0 17.31 0.0
pair_coeff 3 36 0.086744 6.220000000000001 -1.0 18.660000000000004 35.0
pair_coeff 3 37 0.099944 6.02 -1.0 18.06 0.0
pair_coeff 3 38 0.122573 5.96 -1.0 17.88 0.0
pair_coeff 3 39 0.030172 5.92 -1.0 17.759999999999998 0.0
pair_coeff 3 40 0.069772 6.27 1.0 18.81 0.0
pair_coeff 3 41 0.109515 6.27 1.0 18.81 0.0
pair_coeff 3 42 0.070306 5.43 -1.0 16.29 0.0
pair_coeff 3 43 0.209566 6.36 -1.0 19.080000000000002 35.0
pair_coeff 3 44 0.048673 5.99 -1.0 17.97 0.0
pair_coeff 3 45 0.14602 6.46 -1.0 19.38 35.0
pair_coeff 3 46 0.048673 5.7 -1.0 17.1 0.0
pair_coeff 3 47 0.001352 5.970000000000001 1.0 17.910000000000004 35.0
pair_coeff 3 48 0.017577 6.140000000000001 1.0 18.42 35.0
pair_coeff 3 49 0.12574 6.41 1.0 19.23 0.0
pair_coeff 3 50 0.110867 6.11 1.0 18.330000000000002 0.0
pair_coeff 3 51 0.229847 6.27 1.0 18.81 0.0
pair_coeff 3 52 0.051378 6.1899999999999995 -1.0 18.57 0.0
pair_coeff 3 53 0.137908 6.57 1.0 19.71 0.0
pair_coeff 3 54 0.228495 6.36 1.0 19.080000000000002 0.0
pair_coeff 3 55 0.083826 5.77 -1.0 17.31 0.0
pair_coeff 3 56 0.043265 6.220000000000001 -1.0 18.660000000000004 35.0
pair_coeff 3 57 0.062194 6.02 -1.0 18.06 0.0
pair_coeff 3 58 0.094643 5.96 -1.0 17.88 0.0
pair_coeff 3 59 0.037857 5.92 1.0 17.759999999999998 0.0
pair_coeff 3 60 0.181173 6.27 1.0 18.81 0.0
pair_coeff 3 61 0.0198 6.27 1.0 18.81 0.0
pair_coeff 3 62 0.105601 5.43 -1.0 16.29 0.0
pair_coeff 3 63 0.202717 6.36 -1.0 19.080000000000002 35.0
pair_coeff 3 64 0.090516 5.99 -1.0 17.97 0.0
pair_coeff 3 65 0.158402 6.46 -1.0 19.38 35.0
pair_coeff 3 66 0.090516 5.7 -1.0 17.1 0.0
pair_coeff 3 67 0.055629 5.970000000000001 -1.0 17.910000000000004 35.0
pair_coeff 3 68 0.044315 6.140000000000001 -1.0 18.42 35.0
pair_coeff 3 69 0.031115 6.41 1.0 19.23 0.0
pair_coeff 3 70 0.020743 6.11 1.0 18.330000000000002 0.0
pair_coeff 3 71 0.103716 6.27 1.0 18.81 0.0
pair_coeff 3 72 0.092401 6.1899999999999995 -1.0 18.57 0.0
pair_coeff 3 73 0.039601 6.57 1.0 19.71 0.0
pair_coeff 3 74 0.102773 6.36 1.0 19.080000000000002 0.0
pair_coeff 3 75 0.11503 5.77 -1.0 17.31 0.0
pair_coeff 3 76 0.086744 6.220000000000001 -1.0 18.660000000000004 35.0
pair_coeff 3 77 0.099944 6.02 -1.0 18.06 0.0
pair_coeff 3 78 0.122573 5.96 -1.0 17.88 0.0
pair_coeff 3 79 0.030172 5.92 -1.0 17.759999999999998 0.0
pair_coeff 3 80 0.069772 6.27 1.0 18.81 0.0
pair_coeff 4 4 0.060842 5.62 1.0 16.86 0.0
pair_coeff 4 5 0.031097 6.09 1.0 18.27 0.0
pair_coeff 4 6 0.087883 5.33 1.0 15.99 0.0
pair_coeff 4 7 0.017577 5.6 1.0 16.799999999999997 0.0
pair_coeff 4 8 0.009464 5.77 1.0 17.31 0.0
pair_coeff 4 9 0.181173 6.04 1.0 18.12 0.0
pair_coeff 4 10 0.242015 5.74 1.0 17.22 0.0
pair_coeff 4 11 0.360995 5.9 1.0 17.700000000000003 0.0
pair_coeff 4 12 0.031097 5.82 1.0 17.46 0.0
pair_coeff 4 13 0.209566 6.2 1.0 18.6 0.0
pair_coeff 4 14 0.352882 5.99 1.0 17.97 0.0
pair_coeff 4 15 0.039209 5.4 1.0 16.200000000000003 0.0
pair_coeff 4 16 0.101403 5.85 1.0 17.549999999999997 0.0
pair_coeff 4 17 0.028393 5.65 1.0 16.950000000000003 0.0
pair_coeff 4 18 0.031097 5.59 1.0 16.77 0.0
pair_coeff 4 19 0.194694 5.550000000000001 1.0 16.650000000000002 0.0
pair_coeff 4 20 0.319081 5.9 1.0 17.700000000000003 0.0
pair_coeff 4 21 0.116916 5.9 1.0 17.700000000000003 0.0
pair_coeff 4 22 0.017915 5.0600000000000005 -1.0 15.180000000000001 0.0
pair_coeff 4 23 0.090516 5.99 -1.0 17.97 0.0
pair_coeff 4 24 0.014143 5.62 -1.0 16.86 0.0
pair_coeff 4 25 0.034886 6.09 -1.0 18.27 0.0
pair_coeff 4 26 0.004714 5.33 1.0 15.99 0.0
pair_coeff 4 27 0.044315 5.6 -1.0 16.799999999999997 0.0
pair_coeff 4 28 0.049972 5.77 -1.0 17.31 0.0
pair_coeff 4 29 0.069772 6.04 1.0 18.12 0.0
pair_coeff 4 30 0.112202 5.74 1.0 17.22 0.0
pair_coeff 4 31 0.195174 5.9 1.0 17.700000000000003 0.0
pair_coeff 4 32 0.034886 5.82 -1.0 17.46 0.0
pair_coeff 4 33 0.089573 6.2 1.0 18.6 0.0
pair_coeff 4 34 0.189517 5.99 1.0 17.97 0.0
pair_coeff 4 35 0.029229 5.4 -1.0 16.200000000000003 0.0
pair_coeff 4 36 0.014143 5.85 1.0 17.549999999999997 0.0
pair_coeff 4 37 0.036772 5.65 -1.0 16.950000000000003 0.0
pair_coeff 4 38 0.034886 5.59 -1.0 16.77 0.0
pair_coeff 4 39 0.079201 5.550000000000001 1.0 16.650000000000002 0.0
pair_coeff 4 40 0.165945 5.9 1.0 17.700000000000003 0.0
pair_coeff 4 41 0.248775 5.9 1.0 17.700000000000003 0.0
pair_coeff 4 42 0.055434 5.0600000000000005 1.0 15.180000000000001 0.0
pair_coeff 4 43 0.048673 5.99 -1.0 17.97 0.0
pair_coeff 4 44 0.060842 5.62 1.0 16.86 0.0
pair_coeff 4 45 0.031097 6.09 1.0 18.27 0.0
pair_coeff 4 46 0.087883 5.33 1.0 15.99 0.0
pair_coeff 4 47 0.017577 5.6 1.0 16.799999999999997 0.0
pair_coeff 4 48 0.009464 5.77 1.0 17.31 0.0
pair_coeff 4 49 0.181173 6.04 1.0 18.12 0.0
pair_coeff 4 50 0.242015 5.74 1.0 17.22 0.0
pair_coeff 4 51 0.360995 5.9 1.0 17.700000000000003 0.0
pair_coeff 4 52 0.031097 5.82 1.0 17.46 0.0
pair_coeff 4 53 0.209566 6.2 1.0 18.6 0.0
pair_coeff 4 54 0.352882 5.99 1.0 17.97 0.0
pair_coeff 4 55 0.039209 5.4 1.0 16.200000000000003 0.0
pair_coeff 4 56 0.101403 5.85 1.0 17.549999999999997 0.0
pair_coeff 4 57 0.028393 5.65 1.0 16.950000000000003 0.0
pair_coeff 4 58 0.031097 5.59 1.0 16.77 0.0
pair_coeff 4 59 0.194694 5.550000000000001 1.0 16.650000000000002 0.0
pair_coeff 4 60 0.319081 5.9 1.0 17.700000000000003 0.0
pair_coeff 4 61 0.116916 5.9 1.0 17.700000000000003 0.0
pair_coeff 4 62 0.017915 5.0600000000000005 -1.0 15.180000000000001 0.0
pair_coeff 4 63 0.090516 5.99 -1.0 17.97 0.0
pair_coeff 4 64 0.014143 5.62 -1.0 16.86 0.0
pair_coeff 4 65 0.034886 6.09 -1.0 18.27 0.0
pair_coeff 4 66 0.004714 5.33 1.0 15.99 0.0
pair_coeff 4 67 0.044315 5.6 -1.0 16.799999999999997 0.0
pair_coeff 4 68 0.049972 5.77 -1.0 17.31 0.0
pair_coeff 4 69 0.069772 6.04 1.0 18.12 0.0
pair_coeff 4 70 0.112202 5.74 1.0 17.22 0.0
pair_coeff 4 71 0.195174 5.9 1.0 17.700000000000003 0.0
pair_coeff 4 72 0.034886 5.82 -1.0 17.46 0.0
pair_coeff 4 73 0.089573 6.2 1.0 18.6 0.0
pair_coeff 4 74 0.189517 5.99 1.0 17.97 0.0
pair_coeff 4 75 0.029229 5.4 -1.0 16.200000000000003 0.0
pair_coeff 4 76 0.014143 5.85 1.0 17.549999999999997 0.0
pair_coeff 4 77 0.036772 5.65 -1.0 16.950000000000003 0.0
pair_coeff 4 78 0.034886 5.59 -1.0 16.77 0.0
pair_coeff 4 79 0.079201 5.550000000000001 1.0 16.650000000000002 0.0
pair_coeff 4 80 0.165945 5.9 1.0 17.700000000000003 0.0
pair_coeff 5 5 0.016224 6.56 -1.0 19.68 35.0
pair_coeff 5 6 0.021633 5.8 1.0 17.4 0.0
pair_coeff 5 7 0.083826 6.07 1.0 18.21 35.0
pair_coeff 5 8 0.081122 6.24 1.0 18.72 35.0
pair_coeff 5 9 0.201454 6.51 1.0 19.53 0.0
pair_coeff 5 10 0.189286 6.21 1.0 18.63 0.0
pair_coeff 5 11 0.319081 6.369999999999999 1.0 19.11 0.0
pair_coeff 5 12 0.017577 6.289999999999999 1.0 18.869999999999997 0.0
pair_coeff 5 13 0.235255 6.67 1.0 20.009999999999998 0.0
pair_coeff 5 14 0.312321 6.46 1.0 19.38 0.0
pair_coeff 5 15 0.00676 5.869999999999999 -1.0 17.61 0.0
pair_coeff 5 16 0.06625 6.32 1.0 18.96 35.0
pair_coeff 5 17 0.004056 6.119999999999999 -1.0 18.36 0.0
pair_coeff 5 18 0.004056 6.06 1.0 18.18 0.0
pair_coeff 5 19 0.121684 6.02 1.0 18.06 0.0
pair_coeff 5 20 0.265 6.369999999999999 1.0 19.11 0.0
pair_coeff 5 21 0.080144 6.369999999999999 1.0 19.11 0.0
pair_coeff 5 22 0.051858 5.529999999999999 -1.0 16.589999999999996 0.0
pair_coeff 5 23 0.158402 6.46 -1.0 19.38 35.0
pair_coeff 5 24 0.034886 6.09 -1.0 18.27 0.0
pair_coeff 5 25 0.067887 6.56 -1.0 19.68 35.0
pair_coeff 5 26 0.041486 5.8 -1.0 17.4 0.0
pair_coeff 5 27 0.001886 6.07 1.0 18.21 35.0
pair_coeff 5 28 0.002 6.24 -1.0 18.72 35.0
pair_coeff 5 29 0.083915 6.51 1.0 19.53 0.0
pair_coeff 5 30 0.07543 6.21 1.0 18.63 0.0
pair_coeff 5 31 0.165945 6.369999999999999 1.0 19.11 0.0
pair_coeff 5 32 0.044315 6.289999999999999 -1.0 18.869999999999997 0.0
pair_coeff 5 33 0.107487 6.67 1.0 20.009999999999998 0.0
pair_coeff 5 34 0.161231 6.46 1.0 19.38 0.0
pair_coeff 5 35 0.061287 5.869999999999999 -1.0 17.61 0.0
pair_coeff 5 36 0.010372 6.32 -1.0 18.96 35.0
pair_coeff 5 37 0.059401 6.119999999999999 -1.0 18.36 0.0
pair_coeff 5 38 0.053744 6.06 -1.0 18.18 0.0
pair_coeff 5 39 0.028286 6.02 1.0 18.06 0.0
pair_coeff 5 40 0.12823 6.369999999999999 1.0 19.11 0.0
pair_coeff 5 41 0.196046 6.369999999999999 1.0 19.11 0.0
pair_coeff 5 42 0.00676 5.529999999999999 1.0 16.589999999999996 0.0
pair_coeff 5 43 0.14602 6.46 -1.0 19.38 35.0
pair_coeff 5 44 0.031097 6.09 1.0 18.27 0.0
pair_coeff 5 45 0.016224 6.56 -1.0 19.68 35.0
pair_coeff 5 46 0.021633 5.8 1.0 17.4 0.0
pair_coeff 5 47 0.083826 6.07 1.0 18.21 35.0
pair_coeff 5 48 0.081122 6.24 1.0 18.72 35.0
pair_coeff 5 49 0.201454 6.51 1.0 19.53 0.0
pair_coeff 5 50 0.189286 6.21 1.0 18.63 0.0
pair_coeff 5 51 0.319081 6.369999999999999 1.0 19.11 0.0
pair_coeff 5 52 0.017577 6.289999999999999 1.0 18.869999999999997 0.0
pair_coeff 5 53 0.235255 6.67 1.0 20.009999999999998 0.0
pair_coeff 5 54 0.312321 6.46 1.0 19.38 0.0
pair_coeff 5 55 0.00676 5.869999999999999 -1.0 17.61 0.0
pair_coeff 5 56 0.06625 6.32 1.0 18.96 35.0
pair_coeff 5 57 0.004056 6.119999999999999 -1.0 18.36 0.0
pair_coeff 5 58 0.004056 6.06 1.0 18.18 0.0
pair_coeff 5 59 0.121684 6.02 1.0 18.06 0.0
pair_coeff 5 60 0.265 6.369999999999999 1.0 19.11 0.0
pair_coeff 5 61 0.080144 6.369999999999999 1.0 19.11 0.0
pair_coeff 5 62 0.051858 5.529999999999999 -1.0 16.589999999999996 0.0
pair_coeff 5 63 0.158402 6.46 -1.0 19.38 35.0
pair_coeff 5 64 0.034886 6.09 -1.0 18.27 0.0
pair_coeff 5 65 0.067887 6.56 -1.0 19.68 35.0
pair_coeff 5 66 0.041486 5.8 -1.0 17.4 0.0
pair_coeff 5 67 0.001886 6.07 1.0 18.21 35.0
pair_coeff 5 68 0.002 6.24 -1.0 18.72 35.0
pair_coeff 5 69 0.083915 6.51 1.0 19.53 0.0
pair_coeff 5 70 0.07543 6.21 1.0 18.63 0.0
pair_coeff 5 71 0.165945 6.369999999999999 1.0 19.11 0.0
pair_coeff 5 72 0.044315 6.289999999999999 -1.0 18.869999999999997 0.0
pair_coeff 5 73 0.107487 6.67 1.0 20.009999999999998 0.0
pair_coeff 5 74 0.161231 6.46 1.0 19.38 0.0
pair_coeff 5 75 0.061287 5.869999999999999 -1.0 17.61 0.0
pair_coeff 5 76 0.010372 6.32 -1.0 18.96 35.0
pair_coeff 5 77 0.059401 6.119999999999999 -1.0 18.36 0.0
pair_coeff 5 78 0.053744 6.06 -1.0 18.18 0.0
pair_coeff 5 79 0.028286 6.02 1.0 18.06 0.0
pair_coeff 5 80 0.12823 6.369999999999999 1.0 19.11 0.0
pair_coeff 6 6 0.141964 5.04 1.0 15.120000000000001 0.0
pair_coeff 6 7 0.004056 5.3100000000000005 1.0 15.930000000000001 0.0
pair_coeff 6 8 0.021633 5.48 -1.0 16.44 0.0
pair_coeff 6 9 0.228495 5.75 1.0 17.25 0.0
pair_coeff 6 10 0.320433 5.45 1.0 16.35 0.0
pair_coeff 6 11 0.438061 5.609999999999999 1.0 16.83 0.0
pair_coeff 6 12 0.029745 5.529999999999999 1.0 16.589999999999996 0.0
pair_coeff 6 13 0.290689 5.91 1.0 17.73 0.0
pair_coeff 6 14 0.424541 5.7 1.0 17.1 0.0
pair_coeff 6 15 0.045969 5.109999999999999 1.0 15.329999999999998 0.0
pair_coeff 6 16 0.100051 5.5600000000000005 1.0 16.68 0.0
pair_coeff 6 17 0.022985 5.359999999999999 1.0 16.08 0.0
pair_coeff 6 18 0.048673 5.3 1.0 15.899999999999999 0.0
pair_coeff 6 19 0.256888 5.26 1.0 15.78 0.0
pair_coeff 6 20 0.393444 5.609999999999999 1.0 16.83 0.0
pair_coeff 6 21 0.157459 5.609999999999999 1.0 16.83 0.0
pair_coeff 6 22 0.003771 4.77 1.0 14.309999999999999 0.0
pair_coeff 6 23 0.090516 5.7 -1.0 17.1 0.0
pair_coeff 6 24 0.004714 5.33 1.0 15.99 0.0
pair_coeff 6 25 0.041486 5.8 -1.0 17.4 0.0
pair_coeff 6 26 0.042429 5.04 1.0 15.120000000000001 0.0
pair_coeff 6 27 0.053744 5.3100000000000005 -1.0 15.930000000000001 0.0
pair_coeff 6 28 0.071658 5.48 -1.0 16.44 0.0
pair_coeff 6 29 0.102773 5.75 1.0 17.25 0.0
pair_coeff 6 30 0.166888 5.45 1.0 16.35 0.0
pair_coeff 6 31 0.248918 5.609999999999999 1.0 16.83 0.0
pair_coeff 6 32 0.035829 5.529999999999999 -1.0 16.589999999999996 0.0
pair_coeff 6 33 0.146145 5.91 1.0 17.73 0.0
pair_coeff 6 34 0.239489 5.7 1.0 17.1 0.0
pair_coeff 6 35 0.024515 5.109999999999999 -1.0 15.329999999999998 0.0
pair_coeff 6 36 0.0132 5.5600000000000005 1.0 16.68 0.0
pair_coeff 6 37 0.040543 5.359999999999999 -1.0 16.08 0.0
pair_coeff 6 38 0.022629 5.3 -1.0 15.899999999999999 0.0
pair_coeff 6 39 0.122573 5.26 1.0 15.78 0.0
pair_coeff 6 40 0.217803 5.609999999999999 1.0 16.83 0.0
pair_coeff 6 41 0.306913 5.609999999999999 1.0 16.83 0.0
pair_coeff 6 42 0.086531 4.77 1.0 14.309999999999999 0.0
pair_coeff 6 43 0.048673 5.7 -1.0 17.1 0.0
pair_coeff 6 44 0.087883 5.33 1.0 15.99 0.0
pair_coeff 6 45 0.021633 5.8 1.0 17.4 0.0
pair_coeff 6 46 0.141964 5.04 1.0 15.120000000000001 0.0
pair_coeff 6 47 0.004056 5.3100000000000005 1.0 15.930000000000001 0.0
pair_coeff 6 48 0.021633 5.48 -1.0 16.44 0.0
pair_coeff 6 49 0.228495 5.75 1.0 17.25 0.0
pair_coeff 6 50 0.320433 5.45 1.0 16.35 0.0
pair_coeff 6 51 0.438061 5.609999999999999 1.0 16.83 0.0
pair_coeff 6 52 0.029745 5.529999999999999 1.0 16.589999999999996 0.0
pair_coeff 6 53 0.290689 5.91 1.0 17.73 0.0
pair_coeff 6 54 0.424541 5.7 1.0 17.1 0.0
pair_coeff 6 55 0.045969 5.109999999999999 1.0 15.329999999999998 0.0
pair_coeff 6 56 0.100051 5.5600000000000005 1.0 16.68 0.0
pair_coeff 6 57 0.022985 5.359999999999999 1.0 16.08 0.0
pair_coeff 6 58 0.048673 5.3 1.0 15.899999999999999 0.0
pair_coeff 6 59 0.256888 5.26 1.0 15.78 0.0
pair_coeff 6 60 0.393444 5.609999999999999 1.0 16.83 0.0
pair_coeff 6 61 0.157459 5.609999999999999 1.0 16.83 0.0
pair_coeff 6 62 0.003771 4.77 1.0 14.309999999999999 0.0
pair_coeff 6 63 0.090516 5.7 -1.0 17.1 0.0
pair_coeff 6 64 0.004714 5.33 1.0 15.99 0.0
pair_coeff 6 65 0.041486 5.8 -1.0 17.4 0.0
pair_coeff 6 66 0.042429 5.04 1.0 15.120000000000001 0.0
pair_coeff 6 67 0.053744 5.3100000000000005 -1.0 15.930000000000001 0.0
pair_coeff 6 68 0.071658 5.48 -1.0 16.44 0.0
pair_coeff 6 69 0.102773 5.75 1.0 17.25 0.0
pair_coeff 6 70 0.166888 5.45 1.0 16.35 0.0
pair_coeff 6 71 0.248918 5.609999999999999 1.0 16.83 0.0
pair_coeff 6 72 0.035829 5.529999999999999 -1.0 16.589999999999996 0.0
pair_coeff 6 73 0.146145 5.91 1.0 17.73 0.0
pair_coeff 6 74 0.239489 5.7 1.0 17.1 0.0
pair_coeff 6 75 0.024515 5.109999999999999 -1.0 15.329999999999998 0.0
pair_coeff 6 76 0.0132 5.5600000000000005 1.0 16.68 0.0
pair_coeff 6 77 0.040543 5.359999999999999 -1.0 16.08 0.0
pair_coeff 6 78 0.022629 5.3 -1.0 15.899999999999999 0.0
pair_coeff 6 79 0.122573 5.26 1.0 15.78 0.0
pair_coeff 6 80 0.217803 5.609999999999999 1.0 16.83 0.0
pair_coeff 7 7 0.062194 5.58 -1.0 16.740000000000002 35.0
pair_coeff 7 8 0.087883 5.75 -1.0 17.25 35.0
pair_coeff 7 9 0.147372 6.02 1.0 18.06 0.0
pair_coeff 7 10 0.109515 5.720000000000001 1.0 17.160000000000004 0.0
pair_coeff 7 11 0.233903 5.88 1.0 17.64 0.0
pair_coeff 7 12 0.028393 5.8 -1.0 17.4 0.0
pair_coeff 7 13 0.158189 6.18 1.0 18.54 0.0
pair_coeff 7 14 0.244719 5.970000000000001 1.0 17.910000000000004 0.0
pair_coeff 7 15 0.005408 5.38 -1.0 16.14 0.0
pair_coeff 7 16 0.087883 5.83 1.0 17.490000000000002 35.0
pair_coeff 7 17 0.001352 5.63 1.0 16.89 0.0
pair_coeff 7 18 0.045969 5.57 -1.0 16.71 0.0
pair_coeff 7 19 0.100051 5.53 1.0 16.59 0.0
pair_coeff 7 20 0.202806 5.88 1.0 17.64 0.0
pair_coeff 7 21 0.028286 5.88 1.0 17.64 0.0
pair_coeff 7 22 0.064115 5.04 -1.0 15.120000000000001 0.0
pair_coeff 7 23 0.055629 5.970000000000001 -1.0 17.910000000000004 35.0
pair_coeff 7 24 0.044315 5.6 -1.0 16.799999999999997 0.0
pair_coeff 7 25 0.001886 6.07 1.0 18.21 35.0
pair_coeff 7 26 0.053744 5.3100000000000005 -1.0 15.930000000000001 0.0
pair_coeff 7 27 0.099944 5.58 -1.0 16.740000000000002 35.0
pair_coeff 7 28 0.117859 5.75 -1.0 17.25 35.0
pair_coeff 7 29 0.046201 6.02 1.0 18.06 0.0
pair_coeff 7 30 0.0198 5.720000000000001 1.0 17.160000000000004 0.0
pair_coeff 7 31 0.106544 5.88 1.0 17.64 0.0
pair_coeff 7 32 0.076372 5.8 -1.0 17.4 0.0
pair_coeff 7 33 0.053744 6.18 1.0 18.54 0.0
pair_coeff 7 34 0.114087 5.970000000000001 1.0 17.910000000000004 0.0
pair_coeff 7 35 0.060344 5.38 -1.0 16.14 0.0
pair_coeff 7 36 0.004714 5.83 1.0 17.490000000000002 35.0
pair_coeff 7 37 0.055629 5.63 -1.0 16.89 0.0
pair_coeff 7 38 0.08863 5.57 -1.0 16.71 0.0
pair_coeff 7 39 0.0132 5.53 1.0 16.59 0.0
pair_coeff 7 40 0.084858 5.88 1.0 17.64 0.0
pair_coeff 7 41 0.121684 5.88 1.0 17.64 0.0
pair_coeff 7 42 0.010816 5.04 -1.0 15.120000000000001 0.0
pair_coeff 7 43 0.001352 5.970000000000001 1.0 17.910000000000004 35.0
pair_coeff 7 44 0.017577 5.6 1.0 16.799999999999997 0.0
pair_coeff 7 45 0.083826 6.07 1.0 18.21 35.0
pair_coeff 7 46 0.004056 5.3100000000000005 1.0 15.930000000000001 0.0
pair_coeff 7 47 0.062194 5.58 -1.0 16.740000000000002 35.0
pair_coeff 7 48 0.087883 5.75 -1.0 17.25 35.0
pair_coeff 7 49 0.147372 6.02 1.0 18.06 0.0
pair_coeff 7 50 0.109515 5.720000000000001 1.0 17.160000000000004 0.0
pair_coeff 7 51 0.233903 5.88 1.0 17.64 0.0
pair_coeff 7 52 0.028393 5.8 -1.0 17.4 0.0
pair_coeff 7 53 0.158189 6.18 1.0 18.54 0.0
pair_coeff 7 54 0.244719 5.970000000000001 1.0 17.910000000000004 0.0
pair_coeff 7 55 0.005408 5.38 -1.0 16.14 0.0
pair_coeff 7 56 0.087883 5.83 1.0 17.490000000000002 35.0
pair_coeff 7 57 0.001352 5.63 1.0 16.89 0.0
pair_coeff 7 58 0.045969 5.57 -1.0 16.71 0.0
pair_coeff 7 59 0.100051 5.53 1.0 16.59 0.0
pair_coeff 7 60 0.202806 5.88 1.0 17.64 0.0
pair_coeff 7 61 0.028286 5.88 1.0 17.64 0.0
pair_coeff 7 62 0.064115 5.04 -1.0 15.120000000000001 0.0
pair_coeff 7 63 0.055629 5.970000000000001 -1.0 17.910000000000004 35.0
pair_coeff 7 64 0.044315 5.6 -1.0 16.799999999999997 0.0
pair_coeff 7 65 0.001886 6.07 1.0 18.21 35.0
pair_coeff 7 66 0.053744 5.3100000000000005 -1.0 15.930000000000001 0.0
pair_coeff 7 67 0.099944 5.58 -1.0 16.740000000000002 35.0
pair_coeff 7 68 0.117859 5.75 -1.0 17.25 35.0
pair_coeff 7 69 0.046201 6.02 1.0 18.06 0.0
pair_coeff 7 70 0.0198 5.720000000000001 1.0 17.160000000000004 0.0
pair_coeff 7 71 0.106544 5.88 1.0 17.64 0.0
pair_coeff 7 72 0.076372 5.8 -1.0 17.4 0.0
pair_coeff 7 73 0.053744 6.18 1.0 18.54 0.0
pair_coeff 7 74 0.114087 5.970000000000001 1.0 17.910000000000004 0.0
pair_coeff 7 75 0.060344 5.38 -1.0 16.14 0.0
pair_coeff 7 76 0.004714 5.83 1.0 17.490000000000002 35.0
pair_coeff 7 77 0.055629 5.63 -1.0 16.89 0.0
pair_coeff 7 78 0.08863 5.57 -1.0 16.71 0.0
pair_coeff 7 79 0.0132 5.53 1.0 16.59 0.0
pair_coeff 7 80 0.084858 5.88 1.0 17.64 0.0
pair_coeff 8 8 0.102755 5.92 -1.0 17.759999999999998 35.0
pair_coeff 8 9 0.151428 6.1899999999999995 1.0 18.57 0.0
pair_coeff 8 10 0.135204 5.890000000000001 1.0 17.67 0.0
pair_coeff 8 11 0.259592 6.05 1.0 18.15 0.0
pair_coeff 8 12 0.033801 5.97 -1.0 17.91 0.0
pair_coeff 8 13 0.178469 6.35 1.0 19.049999999999997 0.0
pair_coeff 8 14 0.255536 6.140000000000001 1.0 18.42 0.0
pair_coeff 8 15 0.025689 5.55 -1.0 16.65 0.0
pair_coeff 8 16 0.064898 6.0 1.0 18.0 35.0
pair_coeff 8 17 0.021633 5.8 -1.0 17.4 0.0
pair_coeff 8 18 0.055434 5.74 -1.0 17.22 0.0
pair_coeff 8 19 0.081122 5.7 1.0 17.1 0.0
pair_coeff 8 20 0.216326 6.05 1.0 18.15 0.0
pair_coeff 8 21 0.058458 6.05 1.0 18.15 0.0
pair_coeff 8 22 0.099001 5.21 -1.0 15.629999999999999 0.0
pair_coeff 8 23 0.044315 6.140000000000001 -1.0 18.42 35.0
pair_coeff 8 24 0.049972 5.77 -1.0 17.31 0.0
pair_coeff 8 25 0.002 6.24 -1.0 18.72 35.0
pair_coeff 8 26 0.071658 5.48 -1.0 16.44 0.0
pair_coeff 8 27 0.117859 5.75 -1.0 17.25 35.0
pair_coeff 8 28 0.12823 5.92 -1.0 17.759999999999998 35.0
pair_coeff 8 29 0.049029 6.1899999999999995 1.0 18.57 0.0
pair_coeff 8 30 0.037715 5.890000000000001 1.0 17.67 0.0
pair_coeff 8 31 0.124459 6.05 1.0 18.15 0.0
pair_coeff 8 32 0.080144 5.97 -1.0 17.91 0.0
pair_coeff 8 33 0.067887 6.35 1.0 19.049999999999997 0.0
pair_coeff 8 34 0.12163 6.140000000000001 1.0 18.42 0.0
pair_coeff 8 35 0.074487 5.55 -1.0 16.65 0.0
pair_coeff 8 36 0.011314 6.0 -1.0 18.0 35.0
pair_coeff 8 37 0.071658 5.8 -1.0 17.4 0.0
pair_coeff 8 38 0.09523 5.74 -1.0 17.22 0.0
pair_coeff 8 39 0.002 5.7 -1.0 17.1 0.0
pair_coeff 8 40 0.094287 6.05 1.0 18.15 0.0
pair_coeff 8 41 0.164949 6.05 1.0 18.15 0.0
pair_coeff 8 42 0.060842 5.21 -1.0 15.629999999999999 0.0
pair_coeff 8 43 0.017577 6.140000000000001 1.0 18.42 35.0
pair_coeff 8 44 0.009464 5.77 1.0 17.31 0.0
pair_coeff 8 45 0.081122 6.24 1.0 18.72 35.0
pair_coeff 8 46 0.021633 5.48 -1.0 16.44 0.0
pair_coeff 8 47 0.087883 5.75 -1.0 17.25 35.0
pair_coeff 8 48 0.102755 5.92 -1.0 17.759999999999998 35.0
pair_coeff 8 49 0.151428 6.1899999999999995 1.0 18.57 0.0
pair_coeff 8 50 0.135204 5.890000000000001 1.0 17.67 0.0
pair_coeff 8 51 0.259592 6.05 1.0 18.15 0.0
pair_coeff 8 52 0.033801 5.97 -1.0 17.91 0.0
pair_coeff 8 53 0.178469 6.35 1.0 19.049999999999997 0.0
pair_coeff 8 54 0.255536 6.140000000000001 1.0 18.42 0.0
pair_coeff 8 55 0.025689 5.55 -1.0 16.65 0.0
pair_coeff 8 56 0.064898 6.0 1.0 18.0 35.0
pair_coeff 8 57 0.021633 5.8 -1.0 17.4 0.0
pair_coeff 8 58 0.055434 5.74 -1.0 17.22 0.0
pair_coeff 8 59 0.081122 5.7 1.0 17.1 0.0